num_servers = 13;
sid = [0, 1, 2, 3, 4, 5, 6, 7, 8, 9, 10, 11, 12];
scpu = [10, 2, 10, 5, 5, 10, 5, 5, 5, 10, 5, 5, 5];
sram = [100, 24, 100, 30, 12, 50, 96, 49, 74, 100, 96, 6, 24];

num_vms = 65;
vjob = [0, 1, 2, 3, 3, 4, 5, 5, 5, 5, 5, 6, 7, 7, 7, 8, 8, 9, 9, 10, 11, 12, 13, 14, 14, 15, 16, 17, 18, 19, 19, 20, 21, 21, 22, 23, 24, 24, 24, 24, 24, 24, 24, 25, 26, 27, 27, 27, 27, 27, 27, 27, 28, 29, 30, 30, 30, 31, 32, 33, 33, 33, 33, 33, 33];
vindex = [0, 0, 0, 0, 1, 0, 0, 1, 2, 3, 4, 0, 0, 1, 2, 0, 1, 0, 1, 0, 0, 0, 0, 0, 1, 0, 0, 0, 0, 0, 1, 0, 0, 1, 0, 0, 0, 1, 2, 3, 4, 5, 6, 0, 0, 0, 1, 2, 3, 4, 5, 6, 0, 0, 0, 1, 2, 0, 0, 0, 1, 2, 3, 4, 5];
vcpu = [1, 1, 1, 1, 1, 1, 1, 1, 1, 1, 1, 1, 1, 1, 1, 1, 1, 1, 1, 1, 1, 1, 1, 1, 1, 1, 1, 1, 1, 1, 1, 1, 1, 1, 1, 1, 1, 1, 1, 1, 1, 1, 1, 1, 1, 1, 1, 1, 1, 1, 1, 1, 1, 1, 1, 1, 1, 1, 1, 1, 1, 1, 1, 1, 1];
vram = [1, 1, 1, 1, 1, 1, 1, 1, 1, 1, 1, 1, 1, 1, 1, 1, 1, 1, 1, 1, 1, 1, 1, 1, 1, 1, 1, 1, 1, 1, 1, 1, 1, 1, 1, 1, 1, 1, 1, 1, 1, 1, 1, 1, 1, 1, 1, 1, 1, 1, 1, 1, 1, 1, 1, 1, 1, 1, 1, 1, 1, 1, 1, 1, 1];
vac = [true, true, true, true, true, true, true, true, true, true, true, true, true, true, true, true, true, true, true, true, true, true, true, true, true, true, true, true, true, true, true, true, true, true, true, true, true, true, true, true, true, true, true, true, true, true, true, true, true, true, true, true, true, true, true, true, true, true, true, true, true, true, true, true, true];
